
Gurobi 6.5.2 (linux64) logging started Wed Aug 31 10:35:30 2016

Optimize a model with 201 rows, 1585 columns and 3261 nonzeros
Coefficient statistics:
  Matrix range    [1e+00, 2e+00]
  Objective range [1e+00, 1e+02]
  Bounds range    [1e+00, 1e+00]
  RHS range       [1e+00, 1e+00]
Found heuristic solution: objective 4990
Presolve removed 68 rows and 37 columns
Presolve time: 0.01s
Presolved: 133 rows, 1548 columns, 3114 nonzeros
Variable types: 0 continuous, 1548 integer (1548 binary)

Root relaxation: objective 1.415000e+03, 144 iterations, 0.00 seconds

    Nodes    |    Current Node    |     Objective Bounds      |     Work
 Expl Unexpl |  Obj  Depth IntInf | Incumbent    BestBd   Gap | It/Node Time

     0     0 1415.00000    0    4 4990.00000 1415.00000  71.6%     -    0s
H    0     0                    1504.0000000 1415.00000  5.92%     -    0s
H    0     0                    1447.0000000 1415.00000  2.21%     -    0s
H    0     0                    1423.0000000 1415.00000  0.56%     -    0s
H    0     0                    1420.0000000 1415.00000  0.35%     -    0s
     0     0 1417.50000    0    8 1420.00000 1417.50000  0.18%     -    0s
     0     0 1417.50000    0    4 1420.00000 1417.50000  0.18%     -    0s
     0     0 1418.50000    0    4 1420.00000 1418.50000  0.11%     -    0s
     0     0     cutoff    0      1420.00000 1419.00142  0.07%     -    0s

Explored 0 nodes (226 simplex iterations) in 0.03 seconds
Thread count was 8 (of 8 available processors)

Optimal solution found (tolerance 1.00e-04)
Best objective 1.420000000000e+03, best bound 1.420000000000e+03, gap 0.0%
